160 300 19 21 49 48 30 33 25 16 20 34 25 40 34 27 43 16 35 33 45 13 35 35 28 13 32 44 48 13 36 46 31 46 16 29 45 36 14 21 44 26 45 19 17 30 38 50 37 22 34 31 25 20 15 46 25 38 39 24 43 26 19 23 21 26 44 18 13 48 29 48 25 26 18 32 46 46 33 32 20 19 14 35 29 22 32 45 50 20 18 42 39 30 16 50 46 50 17 10 50 39 50 24 14 17 49 11 15 33 36 27 42 40 11 21 11 34 17 12 46 27 46 34 47 11 36 44 13 45 45 14 33 44 28 39 13 28 41 20 11 28 37 43 17 38 15 21 23 24 25 21 42 21 47 38 24 32 34 29 29 30 